output ["item_shelve_size = array3d(",_toString_Item(1,true,false),"..",_toString_Item(11,true,false),", ",_toString_Shelf(1,true,false),"..",_toString_Shelf(20,true,false),", ",_toString_Dimension(1,true,false),"..",_toString_Dimension(3,true,false),", ",showDzn(item_shelve_size),");\n","item_shelving = ",let {array [int] of string: X_INTRODUCED_5124_ = [_toString_Item(X_INTRODUCED_5122_,true,false) | X_INTRODUCED_5122_ in index_set(item_shelving)], array [int] of string: X_INTRODUCED_5125_ = [_toString_Shelf(item_shelving[X_INTRODUCED_5123_],true,false) | X_INTRODUCED_5123_ in index_set(item_shelving)]} in (show_indexed(X_INTRODUCED_5124_,X_INTRODUCED_5125_)),";\n","item_shelve_placement = array3d(",_toString_Item(1,true,false),"..",_toString_Item(11,true,false),", ",_toString_Shelf(1,true,false),"..",_toString_Shelf(20,true,false),", ",_toString_Dimension(1,true,false),"..",_toString_Dimension(3,true,false),", ",showDzn(item_shelve_placement),");\n","last_loaded_shelf = ",_toString_Shelf(last_loaded_shelf,true,false),";\n","objective = ",showDzn(objective),";\n"];
function string : _toString_Shelf(opt Shelf: X_INTRODUCED_39_,bool: X_INTRODUCED_40_,bool: X_INTRODUCED_41_) = if absent(X_INTRODUCED_39_) then if X_INTRODUCED_41_ then "null" else "<>" endif else (if X_INTRODUCED_41_ then "{ \"c\" : \"S\", \"e\" : " else if X_INTRODUCED_40_ then showDznId("S") else "S" endif++"(" endif++'_17@_toString__constrId_0_Shelf'('S⁻¹'(X_INTRODUCED_39_),X_INTRODUCED_40_,X_INTRODUCED_41_))++if X_INTRODUCED_41_ then "}" else ")" endif endif;
function string : '_17@_toString__constrId_0_Shelf'(opt int: X_INTRODUCED_133_,bool: X_INTRODUCED_134_,bool: X_INTRODUCED_135_) = show(X_INTRODUCED_133_);
function opt _constrId_0_Shelf : 'S⁻¹'(opt Shelf: X_INTRODUCED_26_) = if occurs(X_INTRODUCED_26_) then 'S⁻¹'(deopt(X_INTRODUCED_26_)) else to_enum(_constrId_0_Shelf,<>) endif;
function _constrId_0_Shelf : 'S⁻¹'(Shelf: X_INTRODUCED_24_) = to_enum(_constrId_0_Shelf,X_INTRODUCED_24_-_constrMin_0_Shelf);
function string : _toString_Dimension(opt int: X_INTRODUCED_0_,bool: X_INTRODUCED_1_,bool: X_INTRODUCED_2_) = if occurs(X_INTRODUCED_0_) then if X_INTRODUCED_1_ then showDznId(_enum_to_string_0_Dimension[deopt(X_INTRODUCED_0_)]) elseif X_INTRODUCED_2_ then ("{\"e\":"++show(_enum_to_string_0_Dimension[deopt(X_INTRODUCED_0_)]))++"}" else _enum_to_string_0_Dimension[deopt(X_INTRODUCED_0_)] endif else if X_INTRODUCED_2_ then "null" else "<>" endif endif;
function string : _toString_Item(opt Item: X_INTRODUCED_75_,bool: X_INTRODUCED_76_,bool: X_INTRODUCED_77_) = if absent(X_INTRODUCED_75_) then if X_INTRODUCED_77_ then "null" else "<>" endif else (if X_INTRODUCED_77_ then "{ \"c\" : \"I\", \"e\" : " else if X_INTRODUCED_76_ then showDznId("I") else "I" endif++"(" endif++'_11@_toString__constrId_0_Item'('I⁻¹'(X_INTRODUCED_75_),X_INTRODUCED_76_,X_INTRODUCED_77_))++if X_INTRODUCED_77_ then "}" else ")" endif endif;
function string : '_11@_toString__constrId_0_Item'(opt int: X_INTRODUCED_130_,bool: X_INTRODUCED_131_,bool: X_INTRODUCED_132_) = show(X_INTRODUCED_130_);
function opt _constrId_0_Item : 'I⁻¹'(opt Item: X_INTRODUCED_62_) = if occurs(X_INTRODUCED_62_) then 'I⁻¹'(deopt(X_INTRODUCED_62_)) else to_enum(_constrId_0_Item,<>) endif;
function _constrId_0_Item : 'I⁻¹'(Item: X_INTRODUCED_60_) = to_enum(_constrId_0_Item,X_INTRODUCED_60_-_constrMin_0_Item);
set of int: Item = 1..11;
set of int: Shelf = 1..20;
array [Item] of int: item_shelving;
int: last_loaded_shelf = max(item_shelving);
int: objective = last_loaded_shelf;
int: _constrMin_0_Shelf = 0;
set of int: _constrId_0_Shelf = 1..20;
set of int: Dimension = 1..3;
array [1..660] of int: X_INTRODUCED_808_;
array [Item,Shelf,Dimension] of int: item_shelve_placement = array3d(1..11,1..20,1..3,X_INTRODUCED_808_);
array [1..3] of string: _enum_to_string_0_Dimension = ["Length","Width","Height"];
int: _constrMin_0_Item = 0;
set of int: _constrId_0_Item = 1..11;
array [1..660] of int: X_INTRODUCED_136_;
array [Item,Shelf,Dimension] of int: item_shelve_size = array3d(1..11,1..20,1..3,X_INTRODUCED_136_);
